true false true
presolving:
presolving (0 rounds: 0 fast, 0 medium, 0 exhaustive):
 0 deleted vars, 0 deleted constraints, 0 added constraints, 0 tightened bounds, 0 added holes, 0 changed sides, 0 changed coefficients
 0 implications, 0 cliques
presolved problem has 53 variables (53 bin, 0 int, 0 impl, 0 cont) and 45 constraints
     45 constraints of type <linear>
transformed objective value is always integral (scale: 1)
Presolving Time: 0.00

 time | node  | left  |LP iter|LP it/n|mem/heur|mdpt |vars |cons |rows |cuts |sepa|confs|strbr|  dualbound   | primalbound  |  gap   | compl. 
p 0.0s|     1 |     0 |     0 |     - |shiftand|   0 |  53 |  45 |  45 |   0 |  0 |   0 |   0 |      --      | 8.000000e+00 |    Inf | unknown
 time | node  | left  |LP iter|LP it/n|mem/heur|mdpt |vars |cons |rows |cuts |sepa|confs|strbr|  dualbound   | primalbound  |  gap   | compl. 
  0.1s|     1 |     0 |    25 |     - |  1400k |   0 | 209 |  45 |  45 |   0 |  0 |   0 |   0 | 1.000000e+00 | 8.000000e+00 | 700.00%| unknown
slurmstepd-htc-cmp449: error: *** JOB 16657001 ON htc-cmp449 CANCELLED AT 2024-01-27T19:50:01 DUE TO TIME LIMIT ***
